13:30:30,0,64,0,58,58,0,0,0,58,58,0,58,58,0,0,0,0,0,0,0,0,0,58,0,0,0,0,0,0,0,0,0,0,0,0,0,0,0,0,0,0,0,0,0,0,0,0,0,0,0,0,0,0,0,0,0,0,0,0,0,0,0;
13:30:29,0,58,58,0,0,0,0,58,0,58,0,64,58,58,0,58,58,0,0,0,58,0,0,58,0,0,58,58,58,0,0,58,0,0,0,0,0,58,0,0,0,0,0,0,0,0,0,0,0,0,0,0,0,0,0,0,0,0,0,0,0,0;
13:30:28,0,67,0,67,0,0,58,58,0,58,58,64,64,58,58,0,58,58,58,0,0,0,58,0,0,0,0,0,0,0,58,0,0,0,0,0,0,0,0,0,0,0,0,0,0,0,0,0,0,0,0,0,0,0,0,0,0,0,0,0,0,0;
13:30:27,58,64,58,58,0,58,0,0,64,0,0,64,58,58,58,0,0,0,0,0,0,0,0,0,0,0,0,58,0,0,58,0,0,0,0,0,0,0,0,0,0,0,0,0,0,0,0,58,0,0,0,0,0,0,0,0,0,0,0,0,0,0;
13:30:26,0,0,58,58,58,0,58,58,64,64,0,58,0,64,0,58,0,0,0,0,0,0,0,0,58,0,0,0,0,0,0,0,0,0,0,0,0,0,0,0,0,0,0,0,0,0,0,0,0,0,0,0,0,0,0,0,0,0,0,0,0,0;
13:30:25,64,58,0,58,58,0,0,0,0,58,58,70,58,58,58,58,0,0,0,0,0,0,0,0,0,0,58,0,0,0,0,0,0,0,0,0,0,0,0,0,0,0,0,0,0,0,0,0,0,0,0,0,0,0,0,0,0,0,0,0,0,0;
13:30:24,0,58,64,64,58,58,0,58,58,67,64,67,0,58,58,58,0,58,0,0,0,58,0,0,0,0,0,0,0,0,0,58,0,0,0,0,0,0,0,0,0,0,0,58,0,0,0,0,0,0,0,0,0,0,0,0,0,0,0,0,0,0;
13:30:23,58,0,0,67,0,58,58,0,58,0,0,64,64,58,58,0,58,0,0,0,0,0,0,0,0,0,0,0,0,0,0,0,0,0,0,0,0,0,0,0,0,0,0,0,0,0,0,0,0,0,0,0,0,0,0,0,0,0,0,0,0,0;
13:30:22,0,58,58,64,0,58,0,58,0,58,0,64,58,58,0,0,0,0,0,0,0,58,58,0,0,0,0,0,0,0,0,0,0,0,0,0,0,0,0,0,0,0,0,0,0,0,0,0,0,0,0,0,0,0,0,0,0,0,0,0,0,0;
13:30:21,0,58,58,70,58,58,0,58,0,0,67,64,64,0,58,58,0,0,0,0,0,58,0,0,0,0,0,0,0,0,58,0,0,58,0,0,0,0,0,0,0,0,0,0,0,0,0,0,0,0,0,0,0,0,0,0,0,0,0,0,0,0;
13:30:20,58,67,64,67,58,0,0,64,0,64,64,64,58,0,58,0,58,0,58,0,0,0,0,0,0,0,0,0,0,0,0,0,0,0,0,0,0,0,0,0,0,0,0,0,0,0,0,0,0,0,0,0,0,0,0,0,0,0,0,0,0,0;
13:30:19,0,0,64,67,0,0,0,58,58,58,58,58,58,58,58,0,58,58,0,0,58,0,58,0,0,0,0,0,0,0,0,58,0,0,0,0,0,0,0,0,0,0,0,0,0,0,0,0,0,0,0,0,0,0,0,0,0,0,0,0,0,0;
13:30:18,0,0,58,64,0,0,0,0,0,64,0,58,58,0,0,0,0,0,58,0,0,58,0,0,0,0,0,0,0,0,58,0,0,0,0,0,0,0,0,0,0,0,0,0,0,0,0,0,0,0,0,0,0,0,0,0,0,0,0,0,0,0;
13:30:17,0,0,0,64,0,0,0,0,0,58,58,58,64,0,0,0,0,0,58,0,0,58,0,0,0,0,0,0,0,0,0,0,0,0,0,0,0,0,0,0,0,0,0,0,0,0,0,0,0,0,0,0,0,0,0,0,0,0,0,0,0,0;
13:30:16,0,0,58,70,0,0,58,58,58,58,58,58,0,0,58,58,0,0,0,0,58,0,0,0,0,0,0,0,0,0,0,0,0,0,0,0,0,0,0,0,0,0,0,0,0,0,0,0,0,0,0,0,0,0,0,0,0,0,0,0,0,0;
13:30:15,0,58,58,58,0,0,0,0,58,0,64,58,0,58,0,0,0,58,0,0,0,0,0,0,0,0,0,0,0,0,0,0,0,0,0,0,0,0,0,0,0,0,0,0,0,0,0,0,0,0,0,0,0,0,0,0,0,0,0,0,0,0;
13:30:14,58,67,58,64,0,0,0,58,58,0,58,70,0,64,58,0,0,0,58,58,0,0,0,0,0,0,0,0,0,0,0,0,0,0,0,0,0,0,0,0,0,0,0,0,0,0,0,0,0,0,0,0,0,0,0,0,0,0,0,0,0,0;
13:30:13,0,58,0,64,0,0,0,58,58,58,58,64,58,0,0,58,58,58,58,0,58,58,0,0,0,0,0,0,0,0,0,0,0,0,0,0,0,0,0,0,0,0,0,0,0,0,0,0,0,0,0,0,0,0,0,0,0,0,0,0,0,0;
13:30:12,58,58,0,70,0,0,0,58,0,58,0,64,64,0,0,0,58,0,0,58,58,0,0,0,0,0,0,0,0,0,0,0,0,0,0,0,0,0,0,0,0,0,0,0,0,0,0,0,0,0,0,0,0,0,0,0,0,0,0,0,0,0;
13:30:11,0,58,58,70,0,0,58,0,58,58,64,64,0,58,0,0,58,58,64,0,0,0,0,0,0,0,0,0,0,0,0,0,0,0,0,0,0,0,0,0,0,0,0,0,0,0,0,0,0,0,0,0,0,0,0,0,0,0,0,0,0,0;
13:30:10,0,67,58,64,0,0,0,58,58,64,0,58,0,0,58,58,58,0,0,0,58,0,0,0,0,0,0,0,0,0,0,0,0,0,0,0,0,0,0,0,0,0,0,0,0,0,0,0,0,0,0,0,0,0,0,0,0,0,0,0,0,0;
13:30:09,0,64,64,64,58,58,64,58,58,58,58,0,58,0,0,0,58,0,0,58,0,0,0,0,0,0,0,0,0,0,0,0,0,0,0,0,0,0,0,0,0,0,0,0,0,0,0,0,0,0,0,0,0,0,0,0,0,0,0,0,0,0;
13:30:08,58,0,64,64,58,58,58,0,0,0,58,58,58,58,0,58,0,0,0,0,0,58,0,0,0,0,0,0,0,0,0,58,0,58,0,0,0,0,0,0,0,0,0,0,0,0,0,0,0,0,0,0,0,0,0,0,0,0,0,0,0,0;
13:30:07,58,0,67,0,58,0,0,58,0,58,58,64,64,64,58,0,0,0,58,58,58,0,0,0,0,0,0,0,0,0,0,0,0,0,0,0,0,0,0,0,0,0,0,0,0,0,0,0,0,0,0,0,0,0,0,0,0,0,0,0,0,0;
13:30:06,58,67,58,58,0,58,58,0,0,0,64,58,58,58,0,58,58,0,0,0,0,58,0,0,0,0,0,0,0,0,0,58,0,58,0,0,0,0,0,0,0,58,0,0,0,0,0,0,0,0,0,0,0,0,0,0,0,0,0,0,0,0;
13:30:05,0,58,0,58,0,0,0,58,0,0,58,58,67,0,0,0,0,0,0,58,58,58,0,58,58,58,0,58,58,0,58,0,0,0,0,0,0,0,0,0,0,0,0,58,0,0,0,0,0,0,0,0,0,0,0,0,0,0,0,0,0,0;
13:30:04,58,58,58,58,0,58,0,58,58,64,58,64,58,0,58,64,0,58,0,0,0,0,0,0,0,0,0,0,0,58,0,0,0,0,0,0,0,0,0,0,0,0,0,0,0,0,0,0,0,0,0,0,0,0,0,0,0,0,0,0,0,0;
13:30:03,64,64,0,64,0,0,58,58,58,58,64,67,64,58,58,58,0,58,0,0,0,58,0,0,0,0,0,0,0,0,0,0,0,0,0,0,0,0,0,0,0,0,0,0,0,0,0,0,0,0,0,0,0,0,0,0,0,0,0,0,0,0;
13:30:02,64,64,58,64,58,0,0,58,58,64,67,58,64,58,58,58,0,0,58,0,0,0,0,0,0,0,0,0,0,0,0,0,0,0,0,0,0,0,0,0,0,0,0,0,0,0,0,0,0,0,0,0,0,0,0,0,0,0,0,0,0,0;
13:30:01,58,58,58,67,0,0,0,0,0,0,58,58,64,0,0,58,0,0,0,0,0,58,0,0,0,0,0,0,0,0,58,58,0,0,0,0,0,0,0,0,0,0,0,0,0,0,0,0,0,0,0,0,0,0,0,0,0,0,0,0,0,0;
13:30:00,58,64,0,64,0,0,0,58,0,58,58,58,58,0,58,0,58,0,0,58,0,58,0,0,0,0,0,0,0,0,0,0,0,0,0,0,0,0,0,0,0,0,0,0,0,0,0,0,0,0,0,0,0,0,0,0,0,0,0,0,0,0;
13:29:59,0,67,58,58,0,58,0,0,58,58,58,0,58,58,58,58,0,58,58,58,0,58,0,0,0,0,0,0,0,0,0,0,0,0,0,0,0,0,0,0,0,0,0,0,0,0,0,0,0,0,0,0,0,0,0,0,0,0,0,0,0,0;
13:29:58,58,58,0,64,0,58,58,0,0,64,58,64,58,64,0,0,0,0,58,0,0,0,58,0,0,0,0,0,0,0,0,0,0,0,0,0,0,0,0,0,0,0,0,0,0,0,0,0,0,0,0,0,0,0,0,0,0,0,0,0,0,0;
13:29:57,0,0,0,58,58,0,58,58,0,0,58,0,0,0,0,64,0,0,0,58,0,0,0,0,0,0,58,0,0,0,0,58,0,58,0,0,0,0,0,0,0,0,0,0,0,0,0,0,0,0,0,0,0,0,0,0,0,0,0,0,0,0;
13:29:56,0,64,0,58,58,0,58,58,0,64,64,58,0,58,0,0,0,0,58,0,58,58,0,0,0,0,0,0,0,0,0,0,0,0,0,0,0,0,0,0,0,0,0,0,0,0,0,0,0,0,0,0,0,0,0,0,0,0,0,0,0,0;
13:29:55,64,67,58,58,0,0,0,0,58,0,70,64,58,0,58,58,0,0,0,0,58,0,0,0,0,0,0,0,0,0,0,0,58,0,58,0,0,0,0,0,0,0,0,0,0,0,0,0,0,0,0,0,0,58,0,0,0,0,0,0,0,0;
13:29:54,67,67,64,58,0,0,0,0,0,0,64,0,64,0,58,0,58,64,58,0,58,58,0,0,0,0,0,0,0,0,0,0,0,0,0,0,0,0,0,0,0,0,0,0,0,0,0,0,0,0,0,0,0,0,0,0,0,0,0,0,0,0;
13:29:53,82,67,67,67,58,64,58,0,58,64,67,0,64,0,0,0,0,0,58,58,0,0,0,0,0,0,0,0,0,0,0,0,0,0,0,0,0,0,0,58,0,0,0,0,0,0,0,0,0,0,0,0,0,0,0,0,0,0,0,0,0,0;
13:29:52,91,87,86,84,73,67,58,67,67,58,70,67,72,64,64,67,58,58,64,58,58,0,58,64,58,0,0,0,0,58,0,58,58,0,58,0,58,58,0,0,0,0,0,0,58,0,0,58,0,0,0,0,0,0,0,0,0,0,0,0,0,0;
13:29:51,72,86,76,58,58,58,58,64,0,70,58,64,58,0,0,58,58,0,0,0,0,0,0,58,0,0,0,0,0,0,0,58,0,0,0,0,0,0,0,0,0,58,0,0,0,0,0,0,0,0,0,0,0,0,0,0,0,0,0,0,0,0;
13:29:50,70,72,64,70,0,58,0,0,58,64,0,58,58,58,0,67,58,64,58,0,0,0,0,0,0,0,0,0,0,0,0,0,0,0,0,0,0,0,0,0,0,0,0,0,0,0,0,0,0,0,0,0,0,0,0,0,0,0,0,0,0,0;
13:29:49,72,67,70,58,58,58,58,58,58,64,64,64,64,0,58,64,58,0,0,58,58,58,58,0,0,0,0,0,0,58,0,0,0,0,0,0,0,0,0,0,0,0,0,0,0,0,0,0,0,0,0,0,0,0,0,0,0,0,0,0,0,0;
13:29:48,78,73,64,58,58,58,58,64,58,0,64,58,0,0,64,0,58,0,58,0,58,0,0,0,0,0,0,0,0,58,0,0,0,0,0,0,0,0,0,0,0,58,0,0,0,0,0,0,0,0,0,0,0,0,0,0,0,0,0,58,58,0;
13:29:47,91,91,85,75,72,75,72,73,70,67,64,67,73,64,0,67,64,58,58,64,58,58,64,64,58,64,58,58,58,58,58,58,0,58,58,58,58,58,0,58,58,58,58,58,0,58,0,0,0,58,58,58,58,0,0,0,58,58,0,58,0,0;
13:29:46,64,64,58,64,64,58,58,64,0,58,0,0,58,58,67,0,58,0,0,58,0,0,0,0,58,0,0,0,0,0,0,58,0,0,0,0,0,0,0,0,0,0,0,0,0,0,0,0,0,0,0,0,0,0,0,0,0,0,0,0,0,0;
13:29:45,64,64,58,58,58,58,0,58,58,64,64,67,58,58,64,0,58,0,0,58,0,0,0,0,0,0,0,0,58,0,0,0,0,0,0,0,0,0,0,0,0,0,0,0,0,0,0,0,0,0,0,0,0,0,0,0,0,0,0,0,0,0;
13:29:44,64,70,58,58,0,0,0,58,58,58,67,64,0,58,58,0,58,58,0,58,0,0,0,0,0,0,0,58,58,0,0,0,0,0,0,0,0,0,0,0,0,0,0,0,0,0,0,0,0,0,0,0,0,0,0,0,0,0,0,0,0,0;
13:29:43,58,58,58,58,0,0,58,0,0,0,64,58,64,0,58,0,58,0,0,0,0,0,58,0,0,0,0,0,0,0,0,0,0,0,0,0,0,0,0,0,0,0,0,0,0,0,0,0,0,0,0,0,0,0,0,0,0,0,0,0,0,0;
13:29:42,0,58,58,67,0,0,58,0,0,58,58,67,0,58,0,58,0,0,0,0,0,0,58,0,0,0,0,0,0,0,0,0,0,0,0,0,0,0,0,0,0,0,0,0,0,0,0,0,0,0,0,0,0,0,0,0,0,0,0,0,0,0;
13:29:41,64,73,67,73,0,0,58,58,58,0,64,64,64,58,58,0,64,0,0,0,58,58,0,0,0,0,0,0,0,0,0,0,0,0,0,0,0,0,0,0,0,0,0,0,0,0,0,0,0,0,0,0,0,0,0,0,0,0,0,0,0,0;
13:29:40,58,64,58,67,58,0,0,0,58,64,64,67,58,0,0,58,0,58,0,0,58,0,0,0,0,0,0,0,58,0,0,0,0,0,0,0,0,58,0,0,0,58,0,0,0,0,0,0,0,0,0,0,0,0,0,0,0,0,0,0,0,0;
13:29:39,58,58,0,70,0,0,58,58,58,58,58,64,58,0,58,58,58,0,58,58,0,0,0,0,0,0,0,0,0,0,0,0,0,0,0,0,0,58,0,0,0,0,0,0,0,0,0,0,0,0,0,0,0,0,0,0,0,0,0,0,0,0;
13:29:38,64,58,58,72,58,0,0,0,0,58,58,64,67,58,0,58,58,0,58,58,0,0,0,0,0,58,0,0,0,0,58,0,0,0,0,0,0,0,0,58,0,0,0,0,0,0,0,0,0,0,0,0,0,0,0,0,0,0,0,0,0,0;
13:29:37,0,64,0,67,0,0,0,58,58,67,58,58,64,58,58,58,0,0,0,0,0,58,0,0,0,0,0,0,0,0,0,0,0,0,0,0,0,0,0,0,0,0,0,0,0,0,0,0,0,0,0,0,0,0,0,0,0,0,0,0,0,0;
13:29:36,67,58,58,64,0,58,58,58,0,58,64,64,67,0,0,0,58,0,0,58,0,0,0,0,0,0,0,58,0,0,0,0,0,0,0,0,0,0,0,0,0,0,0,0,0,0,0,0,0,0,0,0,0,0,0,0,0,0,0,0,0,0;
13:29:35,72,64,67,70,0,58,0,58,58,0,58,64,64,58,58,58,58,0,0,0,0,0,58,0,0,0,0,0,0,0,0,0,0,58,0,0,0,0,0,0,0,0,0,0,0,0,0,0,0,0,0,0,0,0,0,0,0,0,0,0,0,0;
13:29:34,0,0,58,64,58,0,0,58,0,58,64,0,64,58,58,0,0,0,58,0,0,58,0,0,0,0,0,58,0,0,0,0,0,0,0,0,0,0,0,0,0,0,0,0,0,0,0,0,0,0,0,0,0,0,0,0,0,0,0,0,0,0;
13:29:33,58,58,64,64,0,0,0,58,0,58,64,64,58,0,58,58,0,0,0,0,58,58,0,0,58,0,0,0,0,58,0,0,0,0,0,0,0,0,0,0,0,0,0,0,0,0,0,0,0,0,0,0,0,0,0,0,0,0,0,0,0,0;
13:29:32,58,64,58,67,0,58,58,0,0,58,0,64,58,58,64,0,58,0,0,0,0,0,0,0,58,0,0,0,0,0,0,0,58,58,0,0,0,0,0,0,0,0,0,0,0,0,0,0,0,0,0,0,0,0,0,0,0,0,0,0,0,0;
13:29:31,72,58,64,64,0,58,64,58,58,0,58,58,64,58,58,0,0,0,0,0,0,0,58,0,0,0,0,0,0,58,0,58,0,0,0,0,0,58,0,0,0,0,0,0,0,0,0,0,0,0,0,0,0,0,0,0,0,0,0,0,0,0;
13:29:30,77,72,67,64,58,58,64,58,0,58,0,58,58,0,58,58,0,58,58,0,0,58,58,0,0,0,0,0,0,0,0,0,0,0,0,0,0,0,0,0,0,0,0,0,0,0,0,0,0,0,0,0,0,0,0,0,0,0,0,0,0,0;
13:29:29,0,58,64,58,64,0,58,0,58,0,58,58,58,58,0,58,0,0,0,58,58,58,0,0,0,0,0,0,0,0,0,0,0,0,58,0,0,0,0,0,0,0,0,0,0,0,0,0,0,0,0,0,0,0,0,0,0,0,0,0,0,0;
13:29:28,58,58,64,58,58,58,0,0,0,64,58,0,58,58,58,58,58,0,0,0,58,58,0,0,0,0,0,0,0,0,0,0,0,0,0,0,0,0,0,0,0,0,0,0,0,0,0,0,0,0,0,0,0,0,0,0,0,0,0,0,0,0;
13:29:27,58,0,0,58,0,0,0,0,0,58,0,58,64,0,58,0,58,0,58,0,0,58,0,0,0,0,58,0,0,0,0,0,0,0,0,0,0,0,0,0,0,0,0,0,0,0,0,0,0,0,0,0,0,0,0,0,0,0,0,0,0,0;
13:29:26,58,67,0,64,58,0,0,0,0,58,64,0,58,0,0,0,0,58,0,0,0,58,0,0,0,0,0,0,0,0,0,0,0,0,0,0,0,0,0,0,0,0,0,0,0,0,0,0,0,0,0,0,0,58,0,0,0,0,0,0,0,0;
13:29:25,64,64,0,70,0,0,0,0,58,58,64,0,58,58,58,0,58,0,0,0,58,0,0,0,0,0,0,0,0,58,0,0,58,0,0,0,0,0,0,0,0,0,0,0,0,0,0,0,0,0,0,0,0,0,0,0,0,0,0,0,0,0;
13:29:24,70,70,58,67,0,0,64,0,58,58,64,70,64,58,64,0,0,0,58,0,0,0,0,0,0,0,0,0,58,0,0,0,0,0,0,0,0,0,0,0,0,0,0,0,0,0,0,0,0,0,0,0,0,0,0,0,0,0,0,0,0,0;
13:29:23,78,58,70,58,58,67,0,58,0,58,64,64,58,58,0,0,0,0,58,0,0,58,0,0,0,0,0,0,0,0,0,0,0,0,0,0,0,0,0,0,0,0,0,0,0,0,0,0,0,0,0,0,0,0,0,0,0,0,0,0,0,0;
13:29:22,58,67,58,64,64,64,58,58,58,64,58,67,0,58,58,58,0,58,0,0,0,0,0,58,58,0,0,0,58,0,0,0,0,58,0,0,0,0,0,0,0,0,0,0,0,0,0,0,0,0,0,0,0,0,0,0,0,0,0,0,0,0;
13:29:21,58,58,0,67,58,58,0,0,0,0,58,0,64,0,0,0,58,0,58,58,0,0,0,0,0,0,58,0,0,0,0,0,0,0,0,0,0,0,0,0,0,0,0,0,0,0,0,0,0,0,0,0,0,0,0,0,0,0,0,0,0,0;
13:29:20,67,64,58,64,0,0,0,0,58,58,58,0,0,0,58,58,58,58,58,58,0,0,0,0,0,0,0,0,0,0,0,0,0,0,0,0,0,0,0,0,0,0,0,0,0,0,0,0,0,0,0,0,0,0,0,0,0,0,0,0,0,0;
13:29:19,58,67,64,67,0,0,0,58,58,0,0,64,58,0,64,0,64,0,58,58,58,0,0,0,0,0,0,58,58,0,0,0,0,0,0,0,0,0,0,0,0,0,0,0,0,0,0,0,0,0,0,0,0,0,0,0,0,0,0,0,0,0;
13:29:18,58,64,0,67,0,0,58,58,58,0,67,64,67,58,58,58,58,0,0,58,0,0,0,0,0,0,0,58,0,0,0,58,0,58,0,0,0,0,0,0,0,0,0,0,0,0,0,0,0,0,0,0,0,0,0,0,0,0,0,0,0,0;
13:29:17,0,64,64,67,0,0,0,58,58,58,64,58,58,0,0,58,0,0,0,58,0,0,0,0,0,0,0,0,0,0,0,0,0,0,0,0,0,0,0,0,0,0,0,0,0,0,0,0,0,0,0,0,0,0,0,0,0,0,0,0,0,0;
13:29:16,0,58,64,64,0,0,0,58,0,58,64,64,64,0,0,58,0,0,0,58,0,0,0,0,0,0,0,0,58,0,0,0,0,0,0,0,0,58,0,0,0,0,0,0,0,0,0,0,0,0,0,0,0,0,0,0,0,0,0,0,0,0;
13:29:15,58,64,58,64,0,0,58,58,0,58,64,67,64,0,0,58,0,0,58,0,0,58,0,0,0,0,0,0,0,0,0,0,0,0,0,0,0,0,0,0,0,0,0,0,0,0,0,0,0,0,0,0,0,0,0,0,0,0,0,0,0,0;
13:29:14,58,64,58,64,58,58,58,0,0,0,58,58,64,64,0,58,58,0,0,58,0,58,0,0,0,58,0,0,0,0,0,0,0,0,0,0,58,0,0,0,0,0,0,0,0,0,0,0,0,0,0,0,0,0,0,0,0,0,0,0,0,0;
13:29:13,0,0,0,67,0,0,0,58,0,0,67,64,0,58,58,0,58,0,58,0,0,0,0,0,0,0,0,0,0,0,0,0,0,0,0,0,0,0,0,0,0,0,0,0,0,0,0,0,0,0,0,0,0,0,0,0,0,0,0,0,0,0;
13:29:12,58,64,0,64,64,64,58,64,58,64,64,58,64,58,0,0,58,0,0,0,0,0,0,0,58,0,0,58,0,0,0,0,0,0,0,0,0,0,0,0,0,0,0,0,0,0,0,0,0,0,0,0,0,0,0,0,0,0,0,0,0,0;
13:29:11,0,58,58,0,58,0,0,58,0,58,58,58,64,58,64,58,0,58,0,0,0,0,0,0,0,0,0,0,0,0,58,0,0,0,0,0,0,0,0,0,0,0,0,0,58,0,0,0,0,0,0,0,0,0,0,0,0,0,0,0,0,0;
13:29:10,0,67,64,0,58,0,58,0,0,64,0,0,58,58,0,0,0,0,0,58,0,0,58,0,0,0,0,0,0,58,0,0,0,0,0,0,0,0,0,0,0,0,0,0,0,0,0,0,0,0,0,0,0,0,0,0,0,0,0,0,0,0;
13:29:09,58,58,58,0,0,0,0,58,0,58,58,0,58,0,64,64,0,0,0,0,58,58,0,0,0,0,0,0,58,0,58,0,0,0,0,0,0,0,0,0,0,0,0,0,0,0,0,0,0,0,0,0,0,0,0,0,0,0,0,0,0,0;
13:29:08,64,58,58,58,64,0,58,58,58,0,64,67,0,58,0,0,58,0,58,0,0,0,0,0,0,0,58,0,0,0,0,0,0,0,0,0,0,0,0,0,0,0,0,0,0,0,0,0,0,0,0,0,0,0,0,0,0,0,0,0,0,0;
13:29:07,0,64,0,64,0,58,0,0,58,64,58,67,0,58,58,0,58,0,58,0,0,0,0,0,0,0,0,0,0,0,0,58,0,0,0,0,0,0,0,0,0,0,0,0,0,0,0,0,0,0,0,0,0,0,0,0,0,0,0,0,0,0;
13:29:06,0,58,0,64,0,0,58,58,58,58,64,58,58,0,58,58,0,0,0,0,58,0,0,0,0,0,0,0,0,0,0,0,0,0,0,0,0,0,0,58,0,0,0,0,0,0,0,0,0,0,0,0,0,0,0,0,0,0,0,0,0,0;
13:29:05,0,58,58,58,58,0,58,58,58,58,67,58,70,58,0,58,58,0,0,0,0,0,0,0,0,0,0,0,0,0,0,0,0,0,0,0,0,0,0,0,0,0,0,0,0,0,0,0,0,0,0,0,0,0,0,0,0,0,0,0,0,0;
13:29:04,0,58,58,58,0,0,0,58,58,0,64,0,64,0,58,58,0,0,0,0,0,0,0,0,0,0,0,0,0,0,0,0,0,0,0,0,0,0,0,0,0,0,0,0,0,0,0,0,0,0,0,0,0,0,0,0,0,0,0,0,0,0;
13:29:03,64,64,58,67,0,0,58,0,0,0,58,0,64,58,58,0,58,58,0,0,0,58,0,0,0,0,0,0,58,0,0,0,0,58,0,0,0,0,0,0,0,0,0,0,0,0,0,0,0,0,0,0,0,0,0,0,0,0,0,0,0,0;
13:29:02,0,58,58,64,0,0,0,0,0,58,0,67,58,58,58,58,58,58,0,58,0,0,0,0,0,0,0,0,0,0,0,0,0,0,0,0,0,0,0,0,0,0,0,0,0,0,0,0,0,0,0,0,0,0,0,0,0,0,0,0,0,0;
13:29:01,58,0,64,64,0,0,0,0,0,58,0,58,58,0,58,58,58,0,0,58,0,0,0,0,0,0,0,0,0,0,0,0,0,0,0,0,0,0,0,0,0,0,0,0,0,0,0,0,0,0,0,0,0,0,0,0,0,0,0,0,0,0;
13:29:00,58,70,58,67,0,0,58,58,64,0,67,58,67,58,0,0,0,64,0,0,58,0,0,0,0,0,0,0,0,0,0,0,0,0,0,0,0,58,0,0,0,0,0,0,0,0,0,0,0,0,0,0,0,0,0,0,0,0,0,0,0,0;
13:28:59,58,64,64,67,58,58,58,0,0,0,0,58,0,0,58,58,58,58,58,58,58,58,0,0,0,0,0,0,0,0,0,0,0,0,0,0,0,0,0,0,0,0,0,0,0,0,0,0,0,0,0,0,0,0,0,0,0,0,0,0,0,0;
13:28:58,58,0,0,67,0,58,58,0,58,58,58,58,58,0,58,0,58,0,0,0,0,58,0,0,0,0,0,0,0,0,0,0,0,0,0,0,0,0,0,0,0,0,0,0,0,0,0,0,0,0,0,0,0,0,0,0,0,0,0,0,0,0;
13:28:57,58,64,58,67,58,0,0,64,0,58,58,0,64,58,0,0,58,0,0,0,0,0,58,0,0,58,0,0,0,0,0,0,0,0,0,0,0,0,0,0,0,0,0,0,0,0,0,0,0,0,0,0,0,0,0,0,0,0,0,0,0,0;
13:28:56,0,64,64,70,58,0,64,58,0,0,64,58,64,0,0,0,0,0,58,0,0,58,0,0,0,58,0,0,0,0,0,0,0,58,0,0,0,0,0,0,0,0,0,0,0,0,0,0,0,0,0,0,0,0,0,0,0,0,0,0,0,0;
13:28:55,58,64,58,67,58,0,58,64,0,64,67,58,0,58,0,58,0,0,0,0,0,0,0,0,0,0,0,0,0,0,0,0,0,0,0,0,0,0,0,0,0,0,0,0,0,0,0,0,0,0,0,0,0,0,0,0,0,0,0,0,0,0;
13:28:54,0,58,0,64,58,58,58,58,58,0,67,64,58,0,0,58,0,58,0,0,0,0,0,0,0,0,0,0,0,0,0,58,58,0,0,0,0,0,0,0,0,0,0,0,0,0,0,0,0,0,0,0,0,0,0,0,0,0,0,0,0,0;
13:28:53,0,64,58,58,58,64,64,0,0,0,67,67,58,58,58,58,58,0,0,58,0,58,0,0,58,0,0,0,0,0,0,0,0,0,0,0,0,0,0,0,58,0,0,0,0,0,0,0,0,0,0,0,0,0,0,0,0,0,0,0,0,0;
13:28:52,0,64,64,58,58,58,0,0,0,0,58,67,64,58,58,0,58,58,0,0,0,0,58,0,0,0,0,0,0,0,58,0,0,0,0,0,0,0,0,0,0,0,0,0,0,0,0,0,0,0,0,0,0,0,0,0,0,0,0,0,0,0;
13:28:51,58,58,58,58,58,58,0,58,0,64,58,0,0,0,58,0,0,0,0,0,0,58,0,0,0,0,0,0,0,0,0,0,0,0,0,0,0,0,0,0,0,0,0,0,0,0,0,0,0,0,0,0,0,0,0,0,0,0,0,0,0,0;
13:28:50,64,58,0,0,58,0,0,58,0,64,0,0,58,0,58,0,0,0,0,0,0,0,0,0,0,0,0,0,0,0,0,58,0,0,0,0,0,0,0,0,0,0,0,0,0,0,0,0,0,0,0,0,0,0,0,0,0,0,0,0,0,0;
13:28:49,64,58,58,64,0,0,64,58,58,64,58,64,0,0,58,0,58,58,0,58,0,0,0,0,0,58,58,0,0,0,0,0,0,0,0,0,0,0,0,0,0,0,0,0,0,0,0,0,0,0,0,0,0,0,0,0,0,0,0,0,0,0;
13:28:48,58,64,58,64,0,0,0,0,64,0,70,58,67,0,0,58,0,58,58,0,0,0,0,0,0,0,0,0,0,0,0,0,0,0,0,0,0,58,0,0,0,0,0,0,0,0,0,0,0,0,0,0,0,0,0,0,0,0,0,0,0,0;
13:28:47,0,64,0,64,58,64,58,0,64,64,0,58,58,58,58,64,58,58,0,0,58,0,0,0,0,0,0,0,0,0,0,0,0,0,0,0,0,0,0,0,0,0,0,0,0,0,0,0,0,0,0,0,0,0,0,0,0,0,0,0,0,0;
13:28:46,58,58,58,0,0,58,58,58,0,0,64,58,64,0,0,58,58,0,0,58,0,58,0,0,0,0,0,0,0,0,0,0,0,0,0,0,0,58,0,0,0,0,0,0,0,0,0,0,0,0,0,0,0,0,0,0,0,0,0,0,0,0;
13:28:45,64,67,0,64,58,0,0,0,0,58,58,67,64,0,0,64,58,58,0,58,0,0,0,0,0,0,0,58,0,0,0,0,0,0,0,0,0,0,0,0,0,0,0,0,0,0,0,0,0,0,0,0,0,0,0,0,0,0,0,0,0,0;
13:28:44,64,58,58,64,0,58,58,0,58,58,58,67,58,58,58,0,64,0,0,0,0,0,0,0,0,0,0,0,58,0,58,58,0,0,0,0,0,0,0,0,0,0,0,0,0,0,0,0,58,0,0,0,0,0,0,0,0,0,0,0,0,0;
13:28:43,0,0,0,58,0,0,58,0,58,64,64,58,58,58,58,58,58,0,0,0,0,0,0,0,0,0,0,0,0,0,0,0,0,0,0,0,0,0,0,0,0,0,0,0,0,0,0,0,0,0,0,0,0,0,0,0,0,0,0,0,0,0;
13:28:42,0,0,64,64,58,58,0,58,58,0,0,58,58,58,58,64,0,58,0,58,0,0,0,0,0,0,0,58,0,0,0,0,0,0,0,0,0,0,0,0,0,0,0,0,0,0,0,0,0,0,0,0,0,0,0,0,0,0,0,0,0,0;
13:28:41,64,67,58,58,58,58,0,0,0,64,70,58,58,58,58,58,0,0,58,0,58,0,0,0,0,0,0,0,0,0,0,0,0,0,0,0,0,0,0,0,0,0,0,0,0,0,0,0,0,0,0,58,0,0,0,0,0,0,0,0,0,0;
13:28:40,67,64,0,64,0,0,58,0,0,0,0,64,64,58,0,0,58,0,0,58,0,0,0,0,0,0,0,0,0,0,0,0,0,0,0,0,0,0,0,0,0,0,0,0,0,0,0,0,0,58,0,0,0,0,0,0,0,0,0,0,0,0;
13:28:39,0,67,0,58,58,0,58,0,0,64,64,67,0,58,58,0,0,58,0,0,0,58,0,0,0,0,0,0,0,0,0,0,0,58,0,0,0,0,0,0,0,0,0,0,0,0,0,0,0,0,0,0,0,0,0,0,0,0,0,0,0,0;
13:28:38,0,0,58,58,0,0,58,58,58,58,58,0,58,0,0,0,58,0,0,0,0,0,0,0,0,0,0,0,0,0,0,0,0,0,0,0,0,0,0,0,0,0,0,0,0,0,0,0,0,0,0,0,0,0,0,0,0,0,0,0,0,0;
13:28:37,0,0,64,58,0,0,58,58,58,58,0,67,67,58,0,0,58,0,0,0,0,0,0,0,0,0,0,0,0,0,0,0,0,0,0,0,0,58,0,0,0,0,0,0,0,0,0,0,0,0,0,0,0,0,0,0,0,0,0,0,0,0;
13:28:36,64,58,0,64,0,0,0,58,0,0,64,0,0,58,58,58,58,0,0,0,0,0,0,0,0,0,0,0,0,0,0,0,0,0,0,0,0,0,0,0,0,0,0,0,0,0,0,0,0,0,0,0,0,0,0,0,0,0,0,0,0,0;
13:28:35,70,67,58,64,0,0,0,58,0,0,64,0,58,58,0,58,0,0,0,58,0,0,0,0,0,0,0,0,0,0,0,0,0,0,0,0,0,0,0,0,0,0,0,0,0,0,0,0,0,58,0,58,0,0,0,0,0,0,0,0,0,0;
13:28:34,76,73,70,58,58,58,0,58,58,0,0,64,64,58,58,0,0,0,0,0,58,0,58,0,0,0,58,58,0,0,0,0,0,0,0,0,0,0,0,0,0,0,0,0,0,0,0,0,0,0,0,0,0,0,0,0,0,0,0,0,0,0;
13:28:33,58,58,64,0,0,0,0,58,58,64,58,0,67,0,58,0,58,0,58,0,58,58,0,0,0,0,0,0,0,0,0,58,0,0,0,0,0,0,0,0,0,0,0,0,0,0,0,0,0,0,0,0,0,0,0,0,0,0,0,0,0,0;
13:28:32,64,58,58,58,0,0,0,0,0,0,0,64,0,58,0,0,0,0,0,0,0,0,0,0,0,0,0,0,0,0,0,0,0,0,0,0,0,58,0,0,0,0,0,0,0,0,0,0,0,0,0,0,0,0,0,0,0,0,0,0,0,0;
13:28:31,0,58,0,58,58,0,58,0,58,58,67,64,64,0,0,0,0,0,0,0,0,0,0,0,0,0,0,0,0,0,0,0,0,0,0,0,0,0,0,0,0,0,0,0,0,0,0,0,0,0,0,0,0,0,0,0,0,0,0,0,0,0;
13:28:30,64,73,0,58,58,58,58,58,0,58,0,0,64,64,58,58,0,0,58,0,0,58,0,0,0,0,0,0,0,0,0,0,0,0,0,0,0,0,0,0,0,0,0,0,0,0,0,0,0,0,0,0,0,0,0,0,0,0,0,0,0,0;
13:28:29,64,58,0,58,0,0,0,0,0,58,58,58,58,58,58,0,0,0,0,0,58,0,0,0,0,0,0,0,0,0,0,0,0,0,0,0,0,58,0,0,0,0,0,0,0,0,0,0,0,0,0,0,0,0,0,0,0,0,0,0,0,0;
13:28:28,67,0,0,58,0,0,58,58,0,0,64,58,67,0,0,0,58,0,0,0,0,0,0,0,0,58,0,0,0,0,0,0,58,0,0,0,0,0,0,0,0,0,0,0,0,0,0,0,0,0,0,0,0,0,0,0,0,0,0,0,0,0;
13:28:27,0,58,0,58,0,0,0,64,58,0,64,58,58,58,58,0,0,0,0,58,58,58,0,0,0,0,0,0,0,0,0,0,0,0,0,0,0,0,0,0,0,0,58,0,0,0,0,0,0,0,0,0,0,0,0,0,0,0,0,0,0,0;
13:28:26,58,0,64,58,58,0,0,0,58,64,67,67,67,0,0,0,58,0,58,0,0,58,0,0,0,0,0,0,0,0,0,0,0,0,0,0,0,0,0,0,0,0,0,0,0,0,0,0,0,0,0,0,0,0,0,0,0,0,0,0,0,0;
13:28:25,0,67,0,58,0,58,58,58,58,58,58,67,58,58,58,0,0,0,58,0,58,0,0,0,0,0,0,0,0,0,58,0,0,0,0,0,0,0,0,0,0,0,0,0,0,0,0,0,0,0,0,0,0,0,0,0,0,0,0,0,0,0;
13:28:24,58,64,0,58,58,58,58,0,58,58,67,67,64,58,58,58,0,0,58,0,0,58,0,0,0,0,0,58,0,0,0,0,0,0,0,0,0,0,0,0,0,0,0,0,0,0,0,0,0,0,0,0,0,0,0,0,0,0,0,0,0,0;
13:28:23,58,0,0,0,58,0,0,0,0,58,0,58,64,0,0,0,0,58,0,0,0,58,0,0,0,0,0,0,0,0,0,0,0,0,0,0,0,0,0,0,0,0,0,0,0,0,0,0,0,58,0,0,0,0,0,0,0,0,0,0,0,0;
13:28:22,0,67,58,64,58,0,58,0,58,0,64,58,0,58,58,0,0,58,0,0,0,0,0,0,0,0,0,0,0,0,0,0,0,0,0,0,0,0,0,0,0,0,0,0,0,0,0,0,0,0,0,0,0,0,0,0,0,0,0,0,0,0;
13:28:21,64,64,64,0,58,0,0,58,58,0,64,64,0,0,58,58,0,0,0,58,0,58,0,0,0,0,0,0,0,0,0,0,0,0,0,0,0,0,0,0,0,0,0,0,0,0,0,0,0,0,0,0,0,0,0,0,0,0,0,0,0,0;
13:28:20,58,58,58,0,0,0,0,0,0,58,58,58,58,58,58,0,58,0,0,58,0,0,0,0,0,0,0,0,0,0,0,0,0,0,0,0,0,0,0,0,0,0,0,0,0,0,0,0,0,0,0,0,0,0,0,0,0,0,0,0,0,0;
13:28:19,58,58,0,58,0,58,0,58,64,0,58,58,58,58,0,58,58,0,0,58,58,58,58,0,0,0,0,0,0,0,0,0,0,0,0,0,0,0,0,0,0,0,0,0,0,0,0,0,0,0,0,0,0,0,0,0,0,0,0,0,0,0;
13:28:18,0,0,58,58,0,0,58,0,58,0,58,58,58,0,58,58,58,0,58,58,0,58,0,0,0,0,0,0,0,0,0,0,0,0,0,0,0,0,0,0,0,0,0,0,58,0,0,0,0,0,0,0,0,0,0,0,0,0,0,0,0,0;
13:28:17,0,0,0,58,0,0,0,0,0,58,58,64,0,58,58,58,0,0,0,0,0,0,0,0,0,0,0,0,0,0,0,0,0,0,0,0,0,0,0,0,0,0,0,0,0,0,0,0,0,0,0,0,0,0,0,0,0,0,0,0,0,0;
13:28:16,58,0,64,58,58,58,0,58,0,58,67,58,0,64,64,0,0,0,58,58,0,0,0,0,58,0,0,58,58,0,58,0,0,0,0,0,0,0,0,58,0,0,0,0,0,0,0,0,0,0,0,0,0,0,0,0,0,0,0,0,0,0;
13:28:15,0,64,64,0,58,0,58,58,58,58,58,0,0,58,58,0,58,0,58,58,0,0,0,0,0,0,0,58,0,0,0,0,0,0,0,0,0,0,0,0,0,0,0,0,0,0,0,0,0,0,0,0,0,0,0,0,0,0,0,0,0,0;
13:28:14,64,64,64,58,58,0,58,0,58,58,64,58,58,58,0,0,58,0,0,0,58,0,0,0,0,0,0,0,0,0,0,0,0,0,0,0,0,0,0,0,0,0,0,0,0,0,0,0,0,0,0,0,0,0,0,0,0,0,0,0,0,0;
13:28:13,0,64,64,0,58,0,58,0,0,64,0,64,0,64,64,58,0,0,0,0,0,0,0,58,0,0,0,0,0,0,0,0,0,0,0,0,0,0,0,0,0,0,0,0,0,0,0,0,0,0,0,0,0,0,0,0,0,0,0,0,0,0;
13:28:12,58,58,58,0,0,0,0,0,58,0,0,58,67,58,0,0,58,64,58,0,0,0,0,0,0,0,0,0,0,0,0,0,0,0,0,0,0,0,0,0,0,0,0,0,0,0,0,0,0,0,0,0,0,0,0,0,0,0,0,0,0,0;
13:28:11,0,64,0,58,0,0,0,0,0,58,64,58,0,0,0,58,0,58,0,0,0,0,0,0,58,0,0,0,58,0,0,0,0,0,0,0,0,0,0,0,0,0,0,0,0,0,0,0,0,0,0,0,0,0,0,0,0,0,0,0,0,0;
13:28:10,0,58,0,58,0,0,58,58,58,58,67,64,0,0,0,0,58,58,58,0,0,0,0,0,0,0,0,0,0,0,0,0,0,0,0,0,0,0,0,0,0,0,0,0,0,0,0,0,0,0,0,0,0,0,0,0,0,0,0,0,0,0;
13:28:09,58,58,0,64,0,58,58,58,0,58,64,64,58,58,58,0,0,0,0,0,0,58,0,0,0,0,0,0,0,0,0,0,0,58,0,0,0,0,0,0,0,0,0,0,0,0,0,0,0,0,0,0,0,0,0,0,0,0,0,0,0,0;
13:28:08,58,58,58,67,0,0,0,58,0,58,64,58,0,58,0,64,58,58,0,58,0,0,0,0,0,0,0,0,58,0,58,0,0,0,0,0,0,0,0,0,0,0,0,0,0,0,0,0,0,0,0,0,0,0,0,0,0,0,0,0,0,0;
13:28:07,0,64,0,64,0,0,0,0,0,0,67,64,58,0,58,0,58,0,0,58,0,0,0,0,58,0,0,0,0,0,58,0,0,0,0,0,0,0,0,0,0,0,0,0,0,0,0,0,0,0,0,0,0,0,0,0,0,0,0,0,0,0;
13:28:06,0,58,0,58,0,0,58,0,64,0,0,0,64,0,0,0,0,0,0,0,0,0,0,0,0,0,0,0,0,0,0,0,0,0,0,0,0,0,0,0,0,0,0,0,0,0,0,0,0,0,0,0,0,0,0,0,0,0,0,0,0,0;
13:28:05,58,64,58,64,0,0,0,0,58,58,58,64,58,0,0,64,58,0,58,0,0,0,0,0,0,0,58,0,0,0,0,0,58,58,0,0,0,0,0,0,0,0,0,0,0,0,0,0,0,0,0,0,0,0,0,0,0,0,0,0,0,0;
13:28:04,58,58,58,58,0,0,0,64,0,0,64,64,64,58,58,0,0,58,0,58,0,0,0,0,0,0,0,0,0,0,0,0,0,0,0,0,0,58,0,0,0,0,0,0,0,0,0,0,0,0,0,0,0,0,0,0,0,0,0,0,0,0;
13:28:03,58,67,58,64,0,58,0,58,58,64,0,64,58,0,58,58,0,0,0,0,0,0,0,0,0,0,0,0,58,0,58,0,0,0,0,0,0,0,0,0,0,0,0,0,0,0,0,0,0,0,0,0,0,0,0,0,0,0,0,0,0,0;
13:28:02,58,0,58,58,0,58,64,0,0,58,64,64,58,58,0,0,58,0,0,0,0,0,0,0,0,0,0,0,58,0,0,0,0,0,0,0,0,58,0,0,0,0,0,0,0,0,0,0,0,0,0,0,0,0,0,0,0,0,0,0,0,0;
13:28:01,58,0,0,64,58,58,0,58,58,58,58,58,58,58,58,0,58,0,0,0,58,0,58,0,0,0,0,0,58,0,0,0,0,0,0,0,0,0,0,0,0,0,0,0,0,0,0,0,0,0,0,0,0,0,0,0,0,0,0,0,0,0;
13:28:00,0,67,64,64,0,0,58,0,0,58,64,58,0,58,58,0,0,58,0,0,58,58,58,0,0,0,0,0,0,0,0,0,0,0,0,0,0,0,0,0,0,0,0,0,0,0,0,0,0,0,0,0,0,0,0,0,0,0,0,0,0,0;
13:27:59,0,64,0,67,58,0,0,0,0,0,67,0,0,0,0,58,0,0,0,0,0,58,0,0,0,0,0,0,0,0,0,0,0,0,0,0,0,0,0,0,0,0,0,0,0,0,0,0,0,0,0,0,0,0,0,0,0,0,0,0,0,0;
13:27:58,0,64,58,70,0,0,58,0,0,64,58,58,0,0,0,0,0,0,0,0,0,0,0,0,0,58,0,0,0,0,0,58,0,0,0,0,0,0,0,0,0,0,0,0,0,0,0,0,0,0,0,0,0,0,0,0,0,0,0,0,0,0;
13:27:57,0,58,64,58,58,58,0,0,58,58,67,64,58,0,0,0,64,0,58,0,0,0,0,0,0,0,0,0,0,0,0,0,0,0,0,0,0,0,0,0,0,0,0,0,0,0,0,0,0,0,0,0,0,0,0,0,0,0,0,0,0,0;
13:27:56,0,0,64,64,58,58,58,58,0,64,58,67,64,58,58,58,58,0,0,0,0,0,0,0,0,0,0,0,0,0,0,58,0,0,58,0,0,0,0,0,0,0,0,0,0,0,0,0,0,0,0,0,0,0,0,0,0,0,0,0,0,0;
13:27:55,58,58,58,58,64,58,0,58,58,58,58,58,64,64,58,0,0,0,0,0,0,0,0,58,0,0,0,0,0,0,0,0,58,0,0,0,0,0,0,0,0,0,0,0,0,0,0,0,0,0,0,0,0,0,0,0,0,0,0,0,0,0;
13:27:54,64,0,67,64,64,0,0,0,0,58,58,58,0,58,0,58,0,0,0,0,0,0,0,0,0,0,0,0,0,0,0,58,0,0,0,0,0,0,0,0,0,0,0,0,0,0,0,0,0,0,0,0,0,0,0,0,0,0,0,0,0,0;
13:27:53,64,67,58,67,0,0,58,0,58,0,64,64,67,0,64,58,0,0,0,0,0,0,0,0,0,0,0,0,0,0,0,0,0,0,0,0,0,58,0,0,0,0,0,0,0,0,0,0,0,0,0,0,0,0,0,0,0,0,0,0,0,0;
13:27:52,67,67,0,58,0,0,58,0,0,58,0,0,58,0,0,58,0,58,0,0,0,0,0,0,0,0,0,0,0,0,0,0,0,0,0,0,0,0,0,0,0,0,0,0,0,0,0,0,0,0,0,0,0,0,0,0,0,0,0,0,0,0;
13:27:51,58,64,64,58,58,0,58,58,58,58,58,58,58,0,0,58,0,0,0,0,58,58,0,0,0,0,0,0,0,0,0,0,0,0,0,0,0,0,0,0,0,0,0,0,0,0,0,0,0,0,0,0,0,0,0,0,0,0,0,0,0,0;
13:27:50,0,58,58,64,0,0,0,0,58,64,58,58,67,0,58,58,0,58,58,58,58,0,0,0,0,0,0,0,0,0,0,58,0,0,0,0,0,0,0,0,0,0,0,0,0,0,0,0,0,0,0,0,0,0,0,0,0,0,0,0,0,0;
13:27:49,58,0,58,58,58,58,0,58,58,64,58,64,0,58,58,0,58,58,0,0,0,58,0,0,0,0,0,0,0,0,0,0,0,0,0,0,0,0,0,0,0,0,0,0,0,0,0,0,0,0,0,0,0,0,0,0,0,0,0,0,0,0;
13:27:48,0,0,58,64,0,0,0,0,0,0,67,64,58,58,58,0,0,0,0,0,0,0,0,0,0,0,0,0,0,0,0,0,0,0,0,0,0,0,0,0,0,0,0,0,0,0,0,0,0,0,0,0,0,0,0,0,0,0,0,0,0,0;
13:27:47,67,64,58,0,0,0,58,0,0,58,58,58,64,58,58,0,0,0,0,0,58,0,0,0,0,58,0,0,0,0,0,0,0,0,0,0,0,0,0,0,0,0,0,0,0,0,0,0,0,0,0,0,0,0,0,0,0,0,0,0,0,0;
13:27:46,58,0,58,0,0,0,58,58,0,58,64,58,58,58,64,58,58,0,58,0,58,0,0,0,0,0,0,0,58,0,0,0,0,0,0,0,0,0,0,0,0,58,0,0,0,0,0,0,0,0,0,0,0,0,0,0,0,0,0,0,0,0;
13:27:45,64,64,0,58,58,0,0,0,58,58,64,58,67,0,0,0,0,58,58,0,0,58,0,0,0,0,0,58,0,0,58,0,0,0,0,0,0,0,0,0,0,0,0,0,0,0,0,0,0,0,0,0,0,0,0,0,0,0,0,0,0,0;
13:27:44,58,0,0,58,0,0,58,58,58,58,70,58,67,58,64,0,0,0,0,0,58,0,0,0,0,0,0,0,58,0,58,0,0,0,0,0,0,0,0,0,0,0,0,0,0,0,0,0,0,0,0,0,0,0,0,0,0,0,0,0,0,0;
13:27:43,58,67,58,67,0,0,0,58,58,0,0,58,58,58,0,58,0,0,0,58,0,0,0,58,0,0,0,0,0,0,0,0,0,0,0,0,0,0,0,0,0,0,0,0,0,0,0,0,0,0,0,0,0,0,0,0,0,0,0,0,0,0;
13:27:42,58,58,58,58,0,0,0,0,0,64,64,0,64,0,0,58,58,0,58,58,0,0,0,0,0,0,0,0,58,0,58,0,0,58,0,0,0,0,0,0,0,0,0,0,0,0,0,0,0,0,0,0,0,0,0,0,0,0,0,0,0,0;
13:27:41,58,64,58,58,0,58,0,0,0,58,67,64,0,58,0,58,0,58,0,58,0,0,0,0,0,0,0,0,0,0,0,0,0,58,0,0,0,0,0,0,0,0,0,0,0,0,0,0,0,0,0,0,0,0,0,0,0,0,0,0,0,0;
13:27:40,58,67,58,58,0,58,0,0,58,58,0,0,0,58,58,0,0,0,0,0,0,58,0,58,0,0,0,0,0,0,58,0,0,0,0,0,0,0,0,0,0,0,0,0,0,0,0,0,0,0,0,0,0,0,0,0,0,0,0,0,0,0;
13:27:39,0,58,0,64,0,0,58,0,0,58,64,64,58,0,0,58,0,58,0,0,0,0,0,0,0,0,0,0,58,0,0,58,0,0,0,0,0,0,0,0,0,0,0,0,0,0,0,0,0,0,0,0,0,0,0,0,0,0,0,0,0,0;
13:27:38,58,0,64,64,0,0,58,0,64,58,58,64,58,58,0,58,58,0,58,0,0,0,0,0,0,0,0,0,0,0,0,58,0,0,0,0,0,0,0,0,0,0,0,0,0,0,0,0,0,0,0,0,0,0,0,0,0,0,0,0,0,0;
13:27:37,0,58,0,58,58,0,0,58,0,58,64,58,64,58,0,0,0,0,0,0,0,0,0,0,0,0,0,0,0,0,0,0,0,0,0,0,0,0,0,0,0,0,0,0,0,0,0,0,0,0,0,0,0,0,0,0,0,0,0,0,0,0;
13:27:36,64,64,75,72,72,67,64,0,64,67,58,58,0,58,58,58,58,58,58,0,0,0,58,0,0,0,0,0,0,0,0,0,0,0,0,0,0,0,0,0,0,0,0,0,0,0,0,0,0,0,0,0,0,0,0,0,0,0,0,0,0,0;
13:27:35,58,58,0,67,0,58,0,58,58,64,58,0,58,0,58,58,58,58,0,0,0,58,0,0,0,0,0,0,58,0,0,58,0,0,58,0,0,0,0,0,0,0,0,0,0,0,0,0,0,0,0,0,0,0,0,0,0,0,0,0,0,0;
13:27:34,0,0,64,64,0,0,0,0,58,58,58,58,70,64,58,0,0,58,0,0,0,0,0,0,0,0,0,0,0,0,58,58,0,0,0,0,0,0,0,0,0,0,0,0,0,0,0,0,0,0,0,0,0,0,0,0,0,0,0,0,0,0;
13:27:33,0,0,0,67,0,0,58,0,0,64,58,64,64,58,58,58,0,58,0,0,0,0,0,0,0,0,0,0,0,0,0,0,0,0,0,0,0,0,0,0,0,0,0,0,0,0,0,0,0,0,0,0,0,0,0,0,0,0,0,0,0,0;
13:27:32,0,58,58,67,0,58,0,0,58,58,0,0,64,58,58,58,0,0,0,0,0,0,0,0,0,0,0,0,0,0,0,0,0,0,0,0,0,0,0,0,0,0,0,0,0,0,0,0,0,0,0,0,0,0,0,0,0,0,0,0,0,0;
13:27:31,58,58,58,70,58,0,0,0,0,0,58,67,64,0,0,0,58,0,0,0,0,0,0,0,0,0,0,0,0,0,0,0,0,0,0,0,0,0,0,0,0,0,0,0,0,0,0,0,58,0,0,0,0,0,0,0,0,0,0,0,0,0;
13:27:30,64,64,58,72,0,0,0,0,0,58,0,0,58,58,0,0,58,58,0,0,58,0,58,0,0,0,0,0,0,0,0,58,0,0,0,0,0,0,0,0,0,0,0,0,0,0,0,0,0,0,0,0,0,0,0,0,0,0,0,0,0,0;
13:27:29,0,64,0,64,0,0,58,0,0,0,67,58,67,0,0,58,0,0,58,58,0,58,0,0,0,0,0,0,0,0,0,0,0,0,0,0,0,0,0,0,0,58,0,0,0,0,0,0,0,0,0,0,0,0,0,0,0,0,0,0,0,0;
13:27:28,0,58,0,67,0,58,58,0,58,64,0,64,0,0,58,0,0,0,0,0,0,58,58,0,0,0,0,58,58,0,0,0,0,0,0,0,0,0,0,0,0,0,0,0,0,0,0,0,0,0,0,0,0,0,0,0,0,0,0,0,0,0;
13:27:27,0,64,58,64,58,0,58,0,64,58,64,0,64,58,58,0,0,0,0,58,58,0,0,0,0,0,0,0,0,0,58,0,0,0,0,0,0,58,0,0,0,0,0,0,0,0,0,0,0,0,0,0,0,0,0,0,0,0,0,0,0,0;
13:27:26,70,58,0,64,58,58,0,58,58,64,58,58,67,0,0,0,0,58,0,0,0,58,0,0,0,0,0,0,0,0,58,0,58,0,0,0,0,0,0,0,0,0,0,0,0,0,0,0,58,0,0,0,0,0,0,0,0,0,0,0,0,0;
13:27:25,64,76,67,70,58,58,0,0,58,58,64,0,58,0,0,0,58,58,0,58,58,58,0,0,0,0,0,58,0,0,0,0,0,0,0,0,0,0,0,0,0,0,0,0,0,0,0,0,0,0,0,0,0,0,0,0,0,0,0,0,0,0;
13:27:24,58,58,58,58,0,0,58,0,0,58,58,64,58,58,0,58,58,58,0,0,0,58,58,0,0,0,0,0,0,0,58,0,0,0,0,0,0,58,0,0,58,0,0,0,0,0,0,0,0,0,0,0,0,0,0,0,0,0,0,0,0,0;
13:27:23,58,58,0,58,0,58,0,58,58,0,58,64,64,58,0,0,0,58,0,58,0,0,0,58,0,0,0,0,0,58,0,0,0,0,0,0,0,0,0,58,0,0,0,0,0,0,0,0,0,0,0,0,0,0,0,0,0,0,0,0,0,0;
13:27:22,0,58,64,58,0,0,0,58,58,0,64,58,70,0,58,0,0,0,0,0,0,0,0,0,0,0,0,58,0,0,0,0,0,0,0,0,0,0,0,0,0,0,0,0,0,0,0,0,0,0,0,0,0,0,0,0,0,0,0,0,0,0;
13:27:21,0,67,0,58,0,0,0,58,0,64,64,58,64,58,0,58,0,0,0,0,0,0,0,0,0,0,0,0,0,0,0,0,0,0,0,0,0,0,0,0,0,0,58,0,0,0,0,0,0,0,0,0,0,0,58,0,0,0,0,0,0,0;
13:27:20,58,0,0,64,58,0,58,58,64,0,0,58,58,0,64,0,58,0,58,0,58,58,0,0,0,0,0,0,0,0,0,0,0,0,0,0,0,0,0,0,0,0,0,0,0,0,0,0,0,0,0,0,0,0,0,0,0,0,0,0,0,0;
13:27:19,67,58,64,58,58,58,0,0,58,58,0,58,58,58,58,0,0,0,0,0,0,0,0,0,0,0,0,0,0,0,0,58,0,0,0,0,0,0,0,0,0,0,0,0,0,0,0,0,0,0,0,0,0,0,0,0,0,0,0,0,0,0;
13:27:18,72,64,64,67,64,0,58,58,0,64,64,67,0,64,0,58,0,0,58,0,58,0,0,0,0,58,0,0,0,0,0,0,0,0,0,0,0,0,0,0,0,0,0,0,0,0,0,0,0,0,0,0,0,0,0,0,0,0,0,0,0,0;
13:27:17,78,75,67,0,58,58,58,0,0,58,58,64,64,0,0,0,58,0,0,0,0,58,0,0,0,58,0,0,0,0,58,0,0,0,0,0,0,0,58,0,0,0,0,0,0,0,0,0,58,0,0,0,0,0,0,0,0,0,0,0,0,0;
13:27:16,58,67,64,58,58,0,0,0,0,0,58,67,67,58,58,0,0,0,58,0,0,0,0,0,0,0,0,0,0,0,0,0,0,0,0,0,0,0,0,0,0,0,0,0,0,0,0,0,0,0,0,0,0,0,0,0,0,0,0,0,0,0;
13:27:15,64,72,64,64,58,0,0,64,0,0,64,67,67,0,58,0,58,0,0,0,0,58,0,0,0,0,0,0,0,0,0,0,0,0,0,0,0,0,0,0,0,58,0,0,0,0,0,0,0,0,0,0,0,0,0,0,0,0,0,0,0,0;
13:27:14,64,58,58,0,0,0,0,0,0,0,58,58,0,58,0,58,0,58,58,58,0,0,58,0,0,0,58,0,0,0,0,0,0,0,0,0,0,0,0,0,0,0,0,0,0,0,0,0,0,0,0,0,0,0,0,0,0,0,0,0,0,0;
13:27:13,64,64,64,64,0,0,0,58,0,0,64,64,0,0,64,0,58,0,0,0,0,58,0,0,0,0,0,0,0,0,0,0,0,0,0,0,0,0,0,0,0,0,0,0,0,0,0,0,0,0,0,0,0,0,0,0,0,0,0,0,0,0;
13:27:12,75,72,58,58,58,0,58,58,58,58,64,64,58,0,58,0,64,58,58,58,0,0,0,0,0,0,0,0,58,0,58,0,0,0,0,0,0,0,0,0,0,58,0,0,0,0,0,0,0,0,0,0,0,0,0,0,0,0,0,0,0,0;
13:27:11,58,64,58,64,0,58,0,64,0,0,0,58,0,58,0,0,0,0,0,58,0,0,0,0,0,0,0,0,0,0,58,0,0,0,0,0,0,0,0,0,0,0,0,0,0,0,0,0,0,0,0,0,0,0,0,0,0,0,0,0,0,0;
13:27:10,58,0,58,58,0,0,58,0,58,58,58,0,64,0,0,0,58,0,0,58,58,0,0,0,0,0,0,0,0,58,0,58,0,0,0,0,0,0,0,0,0,0,0,0,0,0,0,0,0,0,0,0,0,0,0,0,0,0,0,0,0,0;
